SCIP version 5.0.0 [precision: 8 byte] [memory: block] [mode: optimized] [LP solver: NONE] [GitHash: 3bbd232]
Copyright (C) 2002-2017 Konrad-Zuse-Zentrum fuer Informationstechnik Berlin (ZIB)

External codes: 
  Readline EditLine w  GNU library for command line editing (gnu.org/s/readline)
  CppAD 20160000.1     Algorithmic Differentiation of C++ algorithms developed by B. Bell (www.coin-or.org/CppAD)
  ZLIB 1.2.5           General purpose compression library by J. Gailly and M. Adler (zlib.net)
  GMP 6.1.2            GNU Multiple Precision Arithmetic Library developed by T. Granlund (gmplib.org)

user parameter file <scip.set> not found - using default parameters

read problem <../../Split_data/output/parkin/8/3_sample_parkin.logreg>
============

File name	:	../../Split_data/output/parkin/8/3_sample_parkin.logreg
Problem name 	:	3_sample_parkin
Number of data	:	156
Number of var	:	22
The given data has linear independence

[dim=1] time: 0.003149
[dim=2] time: 0.006451
[dim=3] time: 0.008997
[dim=4] time: 0.011329
[dim=5] time: 0.016225
[dim=6] time: 0.023401
[dim=7] Time of forward = 0.029293sec.
AIC: 87.7621
k: 6

[dim=22] time: 0.169126
[dim=21] time: 0.256478
[dim=20] time: 0.296697
[dim=19] time: 0.383382
[dim=18] time: 0.41429
[dim=17] time: 0.479925
[dim=16] time: 0.542271
[dim=15] time: 0.619377
[dim=14] Time of backward = 0.678805sec.
AIC: 80.3781
k: 15
